1008.44
0 156 27 160 120 155 76 151 94 62 116 56 80 145 98 128 109 132 46 130 117 74 77 43 21 129 64 138 65 52 114 90 131 7 161 159 14 166 8 169 152 29 157 37 118 36 112 150 162 1 93 2 100 134 5 53 41 172 143 163 67 105 17 78 3 119 42 38 146 126 45 113 57 127 91 158 92 140 107 85 139 58 72 99 16 54 122 83 87 137 31 174 95 170 86 30 10 24 142 103 6 35 101 23 102 148 48 63 34 124 71 70 125 28 55 73 19 22 75 108 106 69 147 96 167 25 59 136 149 20 9 97 171 164 82 18 123 47 79 12 115 165 13 168 121 60 154 44 84 66 173 144 104 110 15 50 68 61 88 89 40 39 51 49 4 81 32 11 26 133 33 141 111 153 135
